n = 10; 

m=8; 


											
13	22	30	17	40	16	21	49	44	48
32	47	14	71	71	69	37	72	71	17
77	7	47	80	1	11	18	24	74	28
27	13	36	38	2	17	26	34	8	59
5	60	6	16	28	19	53	54	50	5
43	8	24	2	25	54	26	61	17	8
34	72	2	18	80	68	16	75	16	3
77	7	47	80	1	11	18	24	74	28









 
 


 

 
